c Output_time 26.03.2020 18:13:14_+0100 1585242794566039882
c ** Program information **
c program_name                          "QBRG_debug"
c version                               "0.3.20"
c date                                  "25.3.2020"
c gid_id                                "673970833836058123f633335630c185360d632e"
c author                                "Oliver Kullmann"
c url                                   "https://github.com/OKullmann/oklibrary/blob/master/Satisfiability/Transformers/Generators/Random/QBRG.cpp"
c ** Machine information **
c machine_name                          "chyna-Lenovo-G50-70"
c bogomips                              3791.08
c ** Compilation information **
c compiler_version                      "g++ 7.5.0"
c compilation_date                      "Mar_26_2020 11:16:30"
c compilation_options                   "--std=c++17 -pedantic -fmax-errors=5 -Wall -Wextra -g -D_GLIBCXX_DEBUG"
c NDEBUG                                0
c OPTIMIZE                              0
c ** Parameters **
c command-line                          "./QBRG_debug" "e40 a40 40" "313*1,1|2-2,1|3-3,1" "" "1,t" ""
c output                                "QuBlRaGe_120_313_1585242794529662518.qdimacs"
c options                               "filtered,renamed"
c num_quantifier_blocks                 3
c  quantifier_blocks                    1:e1-40 2:a41-80 3:e81-120
c num_clause-blocks                     1
c  clause-blocks                        313 * {1-40,1,1/2} | {41-80,1,1/2} | {81-120,1,1/2}
c num_e-seeds                           30+2=32
c  e-seeds                              1 0 1 0 4 120 2 40 1 40 0 40 1 313 3 1 1 1 1 2 2 2 1 1 2 3 3 1 1 2 1 1585242794529661927
p cnf 119 313
e 1 2 3 4 5 6 7 8 9 10 11 12 13 14 15 16 17 18 19 20 21 22 23 24 25 26 27 28 29 30 31 32 33 34 35 36 37 38 39 40 0
a 41 42 43 44 45 46 47 48 49 50 51 52 53 54 55 56 57 58 59 60 61 62 63 64 65 66 67 68 69 70 71 72 73 74 75 76 77 78 79 0
e 80 81 82 83 84 85 86 87 88 89 90 91 92 93 94 95 96 97 98 99 100 101 102 103 104 105 106 107 108 109 110 111 112 113 114 115 116 117 118 119 0
-40 -41 -80 0
25 43 -80 0
30 45 -80 0
37 -47 -80 0
-29 68 -80 0
25 70 -80 0
-13 55 80 0
-30 -74 80 0
-11 44 -81 0
-26 -45 -81 0
-10 -52 -81 0
-40 -52 -81 0
-10 64 -81 0
-28 70 -81 0
-29 73 -81 0
-39 48 81 0
25 -57 81 0
-5 48 -82 0
-26 48 -82 0
-8 79 -82 0
-7 55 82 0
-12 65 82 0
-18 69 82 0
22 71 82 0
31 78 82 0
35 -77 -83 0
26 53 83 0
-17 76 83 0
-12 -45 -84 0
9 64 -84 0
-2 -65 -84 0
35 41 84 0
-24 46 84 0
30 -50 84 0
18 -53 84 0
13 57 84 0
-30 -58 84 0
34 62 84 0
38 -63 84 0
5 66 84 0
-24 -71 84 0
-18 -72 84 0
17 42 -85 0
16 -44 -85 0
-33 45 -85 0
-36 -64 -85 0
30 44 85 0
9 -62 85 0
13 -73 85 0
-21 75 85 0
27 -72 -86 0
33 76 -86 0
-9 -50 86 0
-38 -52 86 0
23 -56 86 0
-10 -68 86 0
-9 79 86 0
-7 44 -87 0
-18 -63 -87 0
-11 -72 -87 0
15 55 87 0
-35 73 87 0
25 -50 -88 0
-28 52 -88 0
38 -66 -88 0
26 68 -88 0
-2 51 88 0
-5 66 88 0
-40 67 88 0
-15 -79 88 0
6 -41 -89 0
-18 42 -89 0
-1 -55 -89 0
13 -55 -89 0
-28 -55 -89 0
24 -67 -89 0
-38 71 89 0
-7 43 -90 0
-38 54 -90 0
-23 -53 90 0
22 68 90 0
27 -45 -91 0
9 -49 -91 0
3 60 -91 0
-21 -68 -91 0
-21 73 -91 0
-5 -74 -91 0
-27 -74 -91 0
4 41 91 0
-12 -72 91 0
-38 76 91 0
-12 -47 -92 0
-3 -56 -92 0
-36 68 -92 0
11 -69 -92 0
-26 -73 -92 0
6 41 92 0
-39 44 92 0
36 53 92 0
-36 62 92 0
-23 -75 92 0
-3 77 92 0
29 78 92 0
15 -46 -93 0
38 52 -93 0
8 70 -93 0
7 49 93 0
20 53 93 0
-1 54 93 0
-1 59 93 0
-14 -72 93 0
33 45 -94 0
-28 50 -94 0
19 54 -94 0
-5 66 -94 0
-32 -77 -94 0
-18 -51 94 0
-35 -55 94 0
-20 -61 94 0
-15 67 94 0
-4 74 94 0
-12 74 94 0
-34 -78 94 0
16 44 -95 0
-15 -78 -95 0
-18 45 95 0
-3 46 95 0
-16 -53 95 0
-10 -65 95 0
9 -69 95 0
3 -41 -96 0
15 -44 -96 0
26 45 -96 0
24 -72 -96 0
23 57 96 0
24 65 96 0
-19 68 96 0
2 -71 96 0
24 -74 96 0
-25 46 -97 0
30 71 -97 0
19 -54 -98 0
-37 -64 -98 0
3 -67 -98 0
22 67 -98 0
23 77 -98 0
-7 -50 98 0
-24 77 98 0
-11 -42 -99 0
22 -42 -99 0
1 45 -99 0
3 -57 -99 0
-20 -64 -99 0
10 41 99 0
3 47 99 0
-40 49 99 0
13 51 99 0
-14 54 99 0
39 -63 99 0
37 76 99 0
8 -79 99 0
-14 -52 -100 0
-9 53 -100 0
1 59 -100 0
23 65 -100 0
-28 -75 -100 0
13 77 100 0
-26 52 -101 0
32 53 -101 0
-14 55 -101 0
33 55 -101 0
22 62 -101 0
-11 51 101 0
-33 -55 101 0
-14 70 101 0
35 73 101 0
-16 75 101 0
-23 43 -102 0
-34 59 -102 0
18 -63 -102 0
2 64 -102 0
40 73 -102 0
-12 41 102 0
31 41 102 0
18 -49 102 0
-29 64 102 0
-40 52 -103 0
-36 64 -103 0
-24 65 -103 0
-23 -78 -103 0
-24 50 103 0
-27 71 103 0
-33 49 -104 0
26 -58 -104 0
35 -59 -104 0
-12 -68 -104 0
-32 -75 -104 0
-13 -44 104 0
-36 48 104 0
-36 -53 104 0
33 -52 -105 0
6 65 -105 0
-6 -72 -105 0
-28 51 105 0
-17 -55 105 0
-36 -63 105 0
22 -77 105 0
-8 44 -106 0
37 50 -106 0
-1 -51 -106 0
-26 -64 -106 0
8 -66 -106 0
-29 -68 -106 0
7 -48 106 0
-23 -67 106 0
27 79 106 0
-25 -50 -107 0
28 -55 -107 0
-20 -68 -107 0
-3 -44 107 0
-34 -57 107 0
14 -77 107 0
-37 -47 -108 0
23 53 -108 0
5 55 -108 0
-16 -58 -108 0
17 -59 -108 0
-15 72 -108 0
-30 -73 -108 0
-14 -47 108 0
-23 41 -109 0
18 48 -109 0
-21 41 109 0
-24 42 109 0
14 -53 109 0
-33 -53 109 0
21 -71 109 0
39 54 -110 0
-25 -56 -110 0
24 -66 -110 0
22 45 110 0
-35 -51 110 0
-14 -53 110 0
-15 45 -111 0
20 -57 -111 0
24 -57 -111 0
-14 -58 -111 0
2 63 -111 0
23 -65 -111 0
-40 -67 -111 0
38 71 -111 0
27 -45 111 0
-22 47 111 0
-15 -52 111 0
-36 -66 111 0
-9 44 -112 0
12 -67 -112 0
-34 -75 -112 0
14 76 -112 0
-36 79 -112 0
-28 44 112 0
34 -68 112 0
12 -72 112 0
22 58 -113 0
26 59 -113 0
22 -73 -113 0
-36 -78 -113 0
-5 -41 113 0
-24 -59 113 0
35 -61 113 0
-27 -70 113 0
30 -44 -114 0
10 45 -114 0
27 -56 -114 0
-31 -57 -114 0
10 41 114 0
-10 51 114 0
-32 -63 114 0
7 -73 114 0
23 75 114 0
38 78 114 0
-37 41 -115 0
24 46 -115 0
-27 -55 -115 0
8 63 -116 0
-22 65 -116 0
6 73 -116 0
16 -74 -116 0
32 46 116 0
12 53 116 0
-3 -59 116 0
-25 -71 116 0
-26 46 -117 0
-21 55 -117 0
9 75 -117 0
-19 -41 117 0
38 -45 117 0
-33 47 117 0
-10 54 117 0
-36 74 117 0
-11 79 117 0
13 46 -118 0
-23 57 -118 0
16 47 118 0
-18 -54 118 0
5 55 118 0
-25 -58 118 0
40 -65 118 0
-28 -72 118 0
21 -61 -119 0
-9 -55 119 0
15 -57 119 0
20 67 119 0
